Version identifier: 22.1.0.0 | 2022-03-09 | 1a383f8ce
CPXPARAM_Read_DataCheck                          1
1 of 1 MIP starts provided solutions.
MIP start 'm1' defined initial solution with objective 40.0000.
Tried aggregator 3 times.
MIP Presolve eliminated 26092 rows and 3305 columns.
MIP Presolve modified 446 coefficients.
Aggregator did 23279 substitutions.
Reduced MIP has 3801 rows, 24296 columns, and 52407 nonzeros.
Reduced MIP has 24272 binaries, 24 generals, 0 SOSs, and 0 indicators.
Presolve time = 0.20 sec. (225.09 ticks)
Tried aggregator 1 time.
Detecting symmetries...
Reduced MIP has 3801 rows, 24296 columns, and 52407 nonzeros.
Reduced MIP has 24272 binaries, 24 generals, 0 SOSs, and 0 indicators.
Presolve time = 0.04 sec. (36.33 ticks)
Probing fixed 37 vars, tightened 0 bounds.
Probing changed sense of 6 constraints.
Probing time = 0.05 sec. (8.25 ticks)
Clique table members: 49544.
MIP emphasis: balance optimality and feasibility.
MIP search method: dynamic search.
Parallel mode: deterministic, using up to 8 threads.
Root relaxation solution time = 0.24 sec. (178.98 ticks)

        Nodes                                         Cuts/
   Node  Left     Objective  IInf  Best Integer    Best Bound    ItCnt     Gap

*     0+    0                           40.0000        0.0000           100.00%
      0     0       24.3997  2782       40.0000       24.3997     3311   39.00%
      0     0       39.0000   679       40.0000      Cuts: 50     6070    2.50%
      0     0       39.0000   549       40.0000      Cuts: 39    10702    2.50%

Repeating presolve.
Tried aggregator 3 times.
MIP Presolve eliminated 803 rows and 13290 columns.
MIP Presolve modified 3 coefficients.
Aggregator did 608 substitutions.
Reduced MIP has 2390 rows, 10398 columns, and 23022 nonzeros.
Reduced MIP has 10398 binaries, 0 generals, 0 SOSs, and 0 indicators.
Presolve time = 0.05 sec. (50.61 ticks)
Represolve time = 0.11 sec. (87.72 ticks)

Root node processing (before b&c):
  Real time             =    9.39 sec. (5243.83 ticks)
Parallel b&c, 8 threads:
  Real time             =    0.00 sec. (0.00 ticks)
  Sync time (average)   =    0.00 sec.
  Wait time (average)   =    0.00 sec.
                          ------------
Total (root+branch&cut) =    9.39 sec. (5243.83 ticks)
